15
1 0 6
2 0 6
2 1 1
3 0 4
3 1 1
3 2 6
4 0 5
4 1 4
4 2 6
4 3 1
5 0 4
5 1 2
5 2 4
5 3 5
5 4 2
6 0 3
6 1 6
6 2 5
6 3 5
6 4 3
6 5 5
7 0 1
7 1 3
7 2 5
7 3 2
7 4 3
7 5 2
7 6 3
8 0 3
8 1 2
8 2 2
8 3 5
8 4 4
8 5 4
8 6 3
8 7 6
9 0 4
9 1 2
9 2 2
9 3 1
9 4 1
9 5 1
9 6 2
9 7 1
9 8 3
10 0 3
10 1 5
10 2 2
10 3 1
10 4 3
10 5 3
10 6 4
10 7 3
10 8 4
10 9 1
11 0 5
11 1 4
11 2 1
11 3 2
11 4 6
11 5 3
11 6 6
11 7 1
11 8 2
11 9 3
11 10 4
12 0 5
12 1 2
12 2 6
12 3 3
12 4 2
12 5 5
12 6 2
12 7 1
12 8 5
12 9 3
12 10 1
12 11 1
13 0 2
13 1 5
13 2 3
13 3 2
13 4 4
13 5 6
13 6 1
13 7 5
13 8 5
13 9 3
13 10 4
13 11 1
13 12 6
14 0 4
14 1 2
14 2 4
14 3 1
14 4 6
14 5 1
14 6 4
14 7 4
14 8 6
14 9 4
14 10 3
14 11 6
14 12 1
14 13 1
